Minimize 
     z_0 + z_1 + z_2 + z_3 + z_4 + z_5 + z_6 + z_7 + z_8 + z_9
Subject To 
    ctr_0: 29x_0_0 + 15x_0_1 + 5x_0_2 + 58x_0_3 - 100 z_0 <= 0
    ctr_1: 29x_1_0 + 15x_1_1 + 5x_1_2 + 58x_1_3 - 100 z_1 <= 0
    ctr_2: 29x_2_0 + 15x_2_1 + 5x_2_2 + 58x_2_3 - 100 z_2 <= 0
    ctr_3: 29x_3_0 + 15x_3_1 + 5x_3_2 + 58x_3_3 - 100 z_3 <= 0
    ctr_4: 29x_4_0 + 15x_4_1 + 5x_4_2 + 58x_4_3 - 100 z_4 <= 0
    ctr_5: 29x_5_0 + 15x_5_1 + 5x_5_2 + 58x_5_3 - 100 z_5 <= 0
    ctr_6: 29x_6_0 + 15x_6_1 + 5x_6_2 + 58x_6_3 - 100 z_6 <= 0
    ctr_7: 29x_7_0 + 15x_7_1 + 5x_7_2 + 58x_7_3 - 100 z_7 <= 0
    ctr_8: 29x_8_0 + 15x_8_1 + 5x_8_2 + 58x_8_3 - 100 z_8 <= 0
    ctr_9: 29x_9_0 + 15x_9_1 + 5x_9_2 + 58x_9_3 - 100 z_9 <= 0
    ctr_10: x_0_0 + x_1_0 + x_2_0 + x_3_0 + x_4_0 + x_5_0 + x_6_0 + x_7_0 + x_8_0 + x_9_0 = 5
    ctr_11: x_0_1 + x_1_1 + x_2_1 + x_3_1 + x_4_1 + x_5_1 + x_6_1 + x_7_1 + x_8_1 + x_9_1 = 3
    ctr_12: x_0_2 + x_1_2 + x_2_2 + x_3_2 + x_4_2 + x_5_2 + x_6_2 + x_7_2 + x_8_2 + x_9_2 = 1
    ctr_13: x_0_3 + x_1_3 + x_2_3 + x_3_3 + x_4_3 + x_5_3 + x_6_3 + x_7_3 + x_8_3 + x_9_3 = 1
    ctr_14: y_0_0 - x_0_0 <= 0
    ctr_15: y_1_0 - x_1_0 <= 0
    ctr_16: y_2_0 - x_2_0 <= 0
    ctr_17: y_3_0 - x_3_0 <= 0
    ctr_18: y_4_0 - x_4_0 <= 0
    ctr_19: y_5_0 - x_5_0 <= 0
    ctr_20: y_6_0 - x_6_0 <= 0
    ctr_21: y_7_0 - x_7_0 <= 0
    ctr_22: y_8_0 - x_8_0 <= 0
    ctr_23: y_9_0 - x_9_0 <= 0
    ctr_24: y_0_1 - x_0_1 <= 0
    ctr_25: y_1_1 - x_1_1 <= 0
    ctr_26: y_2_1 - x_2_1 <= 0
    ctr_27: y_3_1 - x_3_1 <= 0
    ctr_28: y_4_1 - x_4_1 <= 0
    ctr_29: y_5_1 - x_5_1 <= 0
    ctr_30: y_6_1 - x_6_1 <= 0
    ctr_31: y_7_1 - x_7_1 <= 0
    ctr_32: y_8_1 - x_8_1 <= 0
    ctr_33: y_9_1 - x_9_1 <= 0
    ctr_34: y_0_2 - x_0_2 <= 0
    ctr_35: y_1_2 - x_1_2 <= 0
    ctr_36: y_2_2 - x_2_2 <= 0
    ctr_37: y_3_2 - x_3_2 <= 0
    ctr_38: y_4_2 - x_4_2 <= 0
    ctr_39: y_5_2 - x_5_2 <= 0
    ctr_40: y_6_2 - x_6_2 <= 0
    ctr_41: y_7_2 - x_7_2 <= 0
    ctr_42: y_8_2 - x_8_2 <= 0
    ctr_43: y_9_2 - x_9_2 <= 0
    ctr_44: y_0_3 - x_0_3 <= 0
    ctr_45: y_1_3 - x_1_3 <= 0
    ctr_46: y_2_3 - x_2_3 <= 0
    ctr_47: y_3_3 - x_3_3 <= 0
    ctr_48: y_4_3 - x_4_3 <= 0
    ctr_49: y_5_3 - x_5_3 <= 0
    ctr_50: y_6_3 - x_6_3 <= 0
    ctr_51: y_7_3 - x_7_3 <= 0
    ctr_52: y_8_3 - x_8_3 <= 0
    ctr_53: y_9_3 - x_9_3 <= 0
    ctr_54: x_0_0 - 5y_0_0 <= 0
    ctr_55: x_1_0 - 5y_1_0 <= 0
    ctr_56: x_2_0 - 5y_2_0 <= 0
    ctr_57: x_3_0 - 5y_3_0 <= 0
    ctr_58: x_4_0 - 5y_4_0 <= 0
    ctr_59: x_5_0 - 5y_5_0 <= 0
    ctr_60: x_6_0 - 5y_6_0 <= 0
    ctr_61: x_7_0 - 5y_7_0 <= 0
    ctr_62: x_8_0 - 5y_8_0 <= 0
    ctr_63: x_9_0 - 5y_9_0 <= 0
    ctr_64: x_0_1 - 5y_0_1 <= 0
    ctr_65: x_1_1 - 5y_1_1 <= 0
    ctr_66: x_2_1 - 5y_2_1 <= 0
    ctr_67: x_3_1 - 5y_3_1 <= 0
    ctr_68: x_4_1 - 5y_4_1 <= 0
    ctr_69: x_5_1 - 5y_5_1 <= 0
    ctr_70: x_6_1 - 5y_6_1 <= 0
    ctr_71: x_7_1 - 5y_7_1 <= 0
    ctr_72: x_8_1 - 5y_8_1 <= 0
    ctr_73: x_9_1 - 5y_9_1 <= 0
    ctr_74: x_0_2 - 5y_0_2 <= 0
    ctr_75: x_1_2 - 5y_1_2 <= 0
    ctr_76: x_2_2 - 5y_2_2 <= 0
    ctr_77: x_3_2 - 5y_3_2 <= 0
    ctr_78: x_4_2 - 5y_4_2 <= 0
    ctr_79: x_5_2 - 5y_5_2 <= 0
    ctr_80: x_6_2 - 5y_6_2 <= 0
    ctr_81: x_7_2 - 5y_7_2 <= 0
    ctr_82: x_8_2 - 5y_8_2 <= 0
    ctr_83: x_9_2 - 5y_9_2 <= 0
    ctr_84: x_0_3 - 5y_0_3 <= 0
    ctr_85: x_1_3 - 5y_1_3 <= 0
    ctr_86: x_2_3 - 5y_2_3 <= 0
    ctr_87: x_3_3 - 5y_3_3 <= 0
    ctr_88: x_4_3 - 5y_4_3 <= 0
    ctr_89: x_5_3 - 5y_5_3 <= 0
    ctr_90: x_6_3 - 5y_6_3 <= 0
    ctr_91: x_7_3 - 5y_7_3 <= 0
    ctr_92: x_8_3 - 5y_8_3 <= 0
    ctr_93: x_9_3 - 5y_9_3 <= 0
    ctr_94: y_0_0 + y_1_0 + y_2_0 + y_3_0 + y_4_0 + y_5_0 + y_6_0 + y_7_0 + y_8_0 + y_9_0 <= 10
    ctr_95: y_0_1 + y_1_1 + y_2_1 + y_3_1 + y_4_1 + y_5_1 + y_6_1 + y_7_1 + y_8_1 + y_9_1 <= 10
    ctr_96: y_0_2 + y_1_2 + y_2_2 + y_3_2 + y_4_2 + y_5_2 + y_6_2 + y_7_2 + y_8_2 + y_9_2 <= 1
    ctr_97: y_0_3 + y_1_3 + y_2_3 + y_3_3 + y_4_3 + y_5_3 + y_6_3 + y_7_3 + y_8_3 + y_9_3 <= 10
    ctr_98: y_0_0 + y_3_0 <= 1
    ctr_99: y_1_0 + y_2_0 <= 1
    ctr_100: y_0_1 + y_3_1 <= 1
    ctr_101: y_1_1 + y_2_1 <= 1
    ctr_102: y_0_2 + y_3_2 <= 1
    ctr_103: y_1_2 + y_2_2 <= 1
    ctr_104: y_0_3 + y_3_3 <= 1
    ctr_105: y_1_3 + y_2_3 <= 1
    ctr_106: y_0_4 + y_3_4 <= 1
    ctr_107: y_1_4 + y_2_4 <= 1
    ctr_108: y_0_5 + y_3_5 <= 1
    ctr_109: y_1_5 + y_2_5 <= 1
    ctr_110: y_0_6 + y_3_6 <= 1
    ctr_111: y_1_6 + y_2_6 <= 1
    ctr_112: y_0_7 + y_3_7 <= 1
    ctr_113: y_1_7 + y_2_7 <= 1
    ctr_114: y_0_8 + y_3_8 <= 1
    ctr_115: y_1_8 + y_2_8 <= 1
    ctr_116: y_0_9 + y_3_9 <= 1
    ctr_117: y_1_9 + y_2_9 <= 1
Binary 
     z_0
     z_1
     z_2
     z_3
     z_4
     z_5
     z_6
     z_7
     z_8
     z_9
     y_0_0
     y_0_1
     y_0_2
     y_0_3
     y_1_0
     y_1_1
     y_1_2
     y_1_3
     y_2_0
     y_2_1
     y_2_2
     y_2_3
     y_3_0
     y_3_1
     y_3_2
     y_3_3
     y_4_0
     y_4_1
     y_4_2
     y_4_3
     y_5_0
     y_5_1
     y_5_2
     y_5_3
     y_6_0
     y_6_1
     y_6_2
     y_6_3
     y_7_0
     y_7_1
     y_7_2
     y_7_3
     y_8_0
     y_8_1
     y_8_2
     y_8_3
     y_9_0
     y_9_1
     y_9_2
     y_9_3
Integer 
     x_0_0
     x_0_1
     x_0_2
     x_0_3
     x_1_0
     x_1_1
     x_1_2
     x_1_3
     x_2_0
     x_2_1
     x_2_2
     x_2_3
     x_3_0
     x_3_1
     x_3_2
     x_3_3
     x_4_0
     x_4_1
     x_4_2
     x_4_3
     x_5_0
     x_5_1
     x_5_2
     x_5_3
     x_6_0
     x_6_1
     x_6_2
     x_6_3
     x_7_0
     x_7_1
     x_7_2
     x_7_3
     x_8_0
     x_8_1
     x_8_2
     x_8_3
     x_9_0
     x_9_1
     x_9_2
     x_9_3
End